c description: Tseitin formula on Random 6-regular graph of 10 vertices, with odd charge
c generator: CNFgen (0.9.2)
c copyright: (C) 2012-2022 Massimo Lauria <massimo.lauria@uniroma1.it>
c url: https://massimolauria.net/cnfgen
c command line: cnfgen tseitin 10 6
c
p cnf 30 320
1 2 3 4 5 -6 0
1 2 3 4 -5 6 0
1 2 3 -4 5 6 0
1 2 3 -4 -5 -6 0
1 2 -3 4 5 6 0
1 2 -3 4 -5 -6 0
1 2 -3 -4 5 -6 0
1 2 -3 -4 -5 6 0
1 -2 3 4 5 6 0
1 -2 3 4 -5 -6 0
1 -2 3 -4 5 -6 0
1 -2 3 -4 -5 6 0
1 -2 -3 4 5 -6 0
1 -2 -3 4 -5 6 0
1 -2 -3 -4 5 6 0
1 -2 -3 -4 -5 -6 0
-1 2 3 4 5 6 0
-1 2 3 4 -5 -6 0
-1 2 3 -4 5 -6 0
-1 2 3 -4 -5 6 0
-1 2 -3 4 5 -6 0
-1 2 -3 4 -5 6 0
-1 2 -3 -4 5 6 0
-1 2 -3 -4 -5 -6 0
-1 -2 3 4 5 -6 0
-1 -2 3 4 -5 6 0
-1 -2 3 -4 5 6 0
-1 -2 3 -4 -5 -6 0
-1 -2 -3 4 5 6 0
-1 -2 -3 4 -5 -6 0
-1 -2 -3 -4 5 -6 0
-1 -2 -3 -4 -5 6 0
1 7 8 9 10 -11 0
1 7 8 9 -10 11 0
1 7 8 -9 10 11 0
1 7 8 -9 -10 -11 0
1 7 -8 9 10 11 0
1 7 -8 9 -10 -11 0
1 7 -8 -9 10 -11 0
1 7 -8 -9 -10 11 0
1 -7 8 9 10 11 0
1 -7 8 9 -10 -11 0
1 -7 8 -9 10 -11 0
1 -7 8 -9 -10 11 0
1 -7 -8 9 10 -11 0
1 -7 -8 9 -10 11 0
1 -7 -8 -9 10 11 0
1 -7 -8 -9 -10 -11 0
-1 7 8 9 10 11 0
-1 7 8 9 -10 -11 0
-1 7 8 -9 10 -11 0
-1 7 8 -9 -10 11 0
-1 7 -8 9 10 -11 0
-1 7 -8 9 -10 11 0
-1 7 -8 -9 10 11 0
-1 7 -8 -9 -10 -11 0
-1 -7 8 9 10 -11 0
-1 -7 8 9 -10 11 0
-1 -7 8 -9 10 11 0
-1 -7 8 -9 -10 -11 0
-1 -7 -8 9 10 11 0
-1 -7 -8 9 -10 -11 0
-1 -7 -8 -9 10 -11 0
-1 -7 -8 -9 -10 11 0
2 7 12 13 14 -15 0
2 7 12 13 -14 15 0
2 7 12 -13 14 15 0
2 7 12 -13 -14 -15 0
2 7 -12 13 14 15 0
2 7 -12 13 -14 -15 0
2 7 -12 -13 14 -15 0
2 7 -12 -13 -14 15 0
2 -7 12 13 14 15 0
2 -7 12 13 -14 -15 0
2 -7 12 -13 14 -15 0
2 -7 12 -13 -14 15 0
2 -7 -12 13 14 -15 0
2 -7 -12 13 -14 15 0
2 -7 -12 -13 14 15 0
2 -7 -12 -13 -14 -15 0
-2 7 12 13 14 15 0
-2 7 12 13 -14 -15 0
-2 7 12 -13 14 -15 0
-2 7 12 -13 -14 15 0
-2 7 -12 13 14 -15 0
-2 7 -12 13 -14 15 0
-2 7 -12 -13 14 15 0
-2 7 -12 -13 -14 -15 0
-2 -7 12 13 14 -15 0
-2 -7 12 13 -14 15 0
-2 -7 12 -13 14 15 0
-2 -7 12 -13 -14 -15 0
-2 -7 -12 13 14 15 0
-2 -7 -12 13 -14 -15 0
-2 -7 -12 -13 14 -15 0
-2 -7 -12 -13 -14 15 0
8 16 17 18 19 -20 0
8 16 17 18 -19 20 0
8 16 17 -18 19 20 0
8 16 17 -18 -19 -20 0
8 16 -17 18 19 20 0
8 16 -17 18 -19 -20 0
8 16 -17 -18 19 -20 0
8 16 -17 -18 -19 20 0
8 -16 17 18 19 20 0
8 -16 17 18 -19 -20 0
8 -16 17 -18 19 -20 0
8 -16 17 -18 -19 20 0
8 -16 -17 18 19 -20 0
8 -16 -17 18 -19 20 0
8 -16 -17 -18 19 20 0
8 -16 -17 -18 -19 -20 0
-8 16 17 18 19 20 0
-8 16 17 18 -19 -20 0
-8 16 17 -18 19 -20 0
-8 16 17 -18 -19 20 0
-8 16 -17 18 19 -20 0
-8 16 -17 18 -19 20 0
-8 16 -17 -18 19 20 0
-8 16 -17 -18 -19 -20 0
-8 -16 17 18 19 -20 0
-8 -16 17 18 -19 20 0
-8 -16 17 -18 19 20 0
-8 -16 17 -18 -19 -20 0
-8 -16 -17 18 19 20 0
-8 -16 -17 18 -19 -20 0
-8 -16 -17 -18 19 -20 0
-8 -16 -17 -18 -19 20 0
3 12 16 21 22 -23 0
3 12 16 21 -22 23 0
3 12 16 -21 22 23 0
3 12 16 -21 -22 -23 0
3 12 -16 21 22 23 0
3 12 -16 21 -22 -23 0
3 12 -16 -21 22 -23 0
3 12 -16 -21 -22 23 0
3 -12 16 21 22 23 0
3 -12 16 21 -22 -23 0
3 -12 16 -21 22 -23 0
3 -12 16 -21 -22 23 0
3 -12 -16 21 22 -23 0
3 -12 -16 21 -22 23 0
3 -12 -16 -21 22 23 0
3 -12 -16 -21 -22 -23 0
-3 12 16 21 22 23 0
-3 12 16 21 -22 -23 0
-3 12 16 -21 22 -23 0
-3 12 16 -21 -22 23 0
-3 12 -16 21 22 -23 0
-3 12 -16 21 -22 23 0
-3 12 -16 -21 22 23 0
-3 12 -16 -21 -22 -23 0
-3 -12 16 21 22 -23 0
-3 -12 16 21 -22 23 0
-3 -12 16 -21 22 23 0
-3 -12 16 -21 -22 -23 0
-3 -12 -16 21 22 23 0
-3 -12 -16 21 -22 -23 0
-3 -12 -16 -21 22 -23 0
-3 -12 -16 -21 -22 23 0
4 13 17 24 25 -26 0
4 13 17 24 -25 26 0
4 13 17 -24 25 26 0
4 13 17 -24 -25 -26 0
4 13 -17 24 25 26 0
4 13 -17 24 -25 -26 0
4 13 -17 -24 25 -26 0
4 13 -17 -24 -25 26 0
4 -13 17 24 25 26 0
4 -13 17 24 -25 -26 0
4 -13 17 -24 25 -26 0
4 -13 17 -24 -25 26 0
4 -13 -17 24 25 -26 0
4 -13 -17 24 -25 26 0
4 -13 -17 -24 25 26 0
4 -13 -17 -24 -25 -26 0
-4 13 17 24 25 26 0
-4 13 17 24 -25 -26 0
-4 13 17 -24 25 -26 0
-4 13 17 -24 -25 26 0
-4 13 -17 24 25 -26 0
-4 13 -17 24 -25 26 0
-4 13 -17 -24 25 26 0
-4 13 -17 -24 -25 -26 0
-4 -13 17 24 25 -26 0
-4 -13 17 24 -25 26 0
-4 -13 17 -24 25 26 0
-4 -13 17 -24 -25 -26 0
-4 -13 -17 24 25 26 0
-4 -13 -17 24 -25 -26 0
-4 -13 -17 -24 25 -26 0
-4 -13 -17 -24 -25 26 0
9 14 18 24 27 -28 0
9 14 18 24 -27 28 0
9 14 18 -24 27 28 0
9 14 18 -24 -27 -28 0
9 14 -18 24 27 28 0
9 14 -18 24 -27 -28 0
9 14 -18 -24 27 -28 0
9 14 -18 -24 -27 28 0
9 -14 18 24 27 28 0
9 -14 18 24 -27 -28 0
9 -14 18 -24 27 -28 0
9 -14 18 -24 -27 28 0
9 -14 -18 24 27 -28 0
9 -14 -18 24 -27 28 0
9 -14 -18 -24 27 28 0
9 -14 -18 -24 -27 -28 0
-9 14 18 24 27 28 0
-9 14 18 24 -27 -28 0
-9 14 18 -24 27 -28 0
-9 14 18 -24 -27 28 0
-9 14 -18 24 27 -28 0
-9 14 -18 24 -27 28 0
-9 14 -18 -24 27 28 0
-9 14 -18 -24 -27 -28 0
-9 -14 18 24 27 -28 0
-9 -14 18 24 -27 28 0
-9 -14 18 -24 27 28 0
-9 -14 18 -24 -27 -28 0
-9 -14 -18 24 27 28 0
-9 -14 -18 24 -27 -28 0
-9 -14 -18 -24 27 -28 0
-9 -14 -18 -24 -27 28 0
10 15 21 25 29 30 0
10 15 21 25 -29 -30 0
10 15 21 -25 29 -30 0
10 15 21 -25 -29 30 0
10 15 -21 25 29 -30 0
10 15 -21 25 -29 30 0
10 15 -21 -25 29 30 0
10 15 -21 -25 -29 -30 0
10 -15 21 25 29 -30 0
10 -15 21 25 -29 30 0
10 -15 21 -25 29 30 0
10 -15 21 -25 -29 -30 0
10 -15 -21 25 29 30 0
10 -15 -21 25 -29 -30 0
10 -15 -21 -25 29 -30 0
10 -15 -21 -25 -29 30 0
-10 15 21 25 29 -30 0
-10 15 21 25 -29 30 0
-10 15 21 -25 29 30 0
-10 15 21 -25 -29 -30 0
-10 15 -21 25 29 30 0
-10 15 -21 25 -29 -30 0
-10 15 -21 -25 29 -30 0
-10 15 -21 -25 -29 30 0
-10 -15 21 25 29 30 0
-10 -15 21 25 -29 -30 0
-10 -15 21 -25 29 -30 0
-10 -15 21 -25 -29 30 0
-10 -15 -21 25 29 -30 0
-10 -15 -21 25 -29 30 0
-10 -15 -21 -25 29 30 0
-10 -15 -21 -25 -29 -30 0
5 11 19 22 27 29 0
5 11 19 22 -27 -29 0
5 11 19 -22 27 -29 0
5 11 19 -22 -27 29 0
5 11 -19 22 27 -29 0
5 11 -19 22 -27 29 0
5 11 -19 -22 27 29 0
5 11 -19 -22 -27 -29 0
5 -11 19 22 27 -29 0
5 -11 19 22 -27 29 0
5 -11 19 -22 27 29 0
5 -11 19 -22 -27 -29 0
5 -11 -19 22 27 29 0
5 -11 -19 22 -27 -29 0
5 -11 -19 -22 27 -29 0
5 -11 -19 -22 -27 29 0
-5 11 19 22 27 -29 0
-5 11 19 22 -27 29 0
-5 11 19 -22 27 29 0
-5 11 19 -22 -27 -29 0
-5 11 -19 22 27 29 0
-5 11 -19 22 -27 -29 0
-5 11 -19 -22 27 -29 0
-5 11 -19 -22 -27 29 0
-5 -11 19 22 27 29 0
-5 -11 19 22 -27 -29 0
-5 -11 19 -22 27 -29 0
-5 -11 19 -22 -27 29 0
-5 -11 -19 22 27 -29 0
-5 -11 -19 22 -27 29 0
-5 -11 -19 -22 27 29 0
-5 -11 -19 -22 -27 -29 0
6 20 23 26 28 30 0
6 20 23 26 -28 -30 0
6 20 23 -26 28 -30 0
6 20 23 -26 -28 30 0
6 20 -23 26 28 -30 0
6 20 -23 26 -28 30 0
6 20 -23 -26 28 30 0
6 20 -23 -26 -28 -30 0
6 -20 23 26 28 -30 0
6 -20 23 26 -28 30 0
6 -20 23 -26 28 30 0
6 -20 23 -26 -28 -30 0
6 -20 -23 26 28 30 0
6 -20 -23 26 -28 -30 0
6 -20 -23 -26 28 -30 0
6 -20 -23 -26 -28 30 0
-6 20 23 26 28 -30 0
-6 20 23 26 -28 30 0
-6 20 23 -26 28 30 0
-6 20 23 -26 -28 -30 0
-6 20 -23 26 28 30 0
-6 20 -23 26 -28 -30 0
-6 20 -23 -26 28 -30 0
-6 20 -23 -26 -28 30 0
-6 -20 23 26 28 30 0
-6 -20 23 26 -28 -30 0
-6 -20 23 -26 28 -30 0
-6 -20 23 -26 -28 30 0
-6 -20 -23 26 28 -30 0
-6 -20 -23 26 -28 30 0
-6 -20 -23 -26 28 30 0
-6 -20 -23 -26 -28 -30 0
